(set-info :Origin "This instance was generated by: BanditFuzz-- an RL fuzzer for SMT solvers" )
(set-info :Author "Joe Scott, Fed Mora, Vijay Ganesh" )
(set-info :Contact "Joe Scott, joseph.scott@uwaterloo.ca")
(set-logic QF_BV)
(declare-const bool_0 Bool)
(declare-const bool_1 Bool)
(declare-const bool_2 Bool)
(declare-const bool_3 Bool)
(declare-const bool_4 Bool)
(declare-const bv_0 (_ BitVec 32))
(declare-const bv_1 (_ BitVec 32))
(declare-const bv_2 (_ BitVec 32))
(declare-const bv_3 (_ BitVec 32))
(declare-const bv_4 (_ BitVec 32))
(assert (bvule (bvlshr (bvxor #xffd8f4c6  #xe4e299a7 ) (bvshl #x2977dcec  #xd1602856 )) (bvudiv (bvmul #xd0fbdf5d  bv_2) (bvand bv_2 bv_0))))
(assert (bvsgt (bvurem (bvlshr bv_3 #xa5644172 ) (bvxnor #x345b197c  bv_0)) (bvxor (bvsdiv bv_1 #x47c30866 ) (bvurem bv_3 bv_1))))
(assert (not (xor (bvule bv_0 #xfbe09191 ) (bvule bv_4 #x2ff174ee ))))
(assert (bvugt (bvnor (bvnor bv_1 bv_4) (bvxnor #xfc10d87a  bv_4)) (bvsmod (bvmul bv_4 bv_2) (bvxnor #xcec68c7f  bv_4))))
(assert (bvugt (bvnand (bvsdiv bv_2 #xdd630fa1 ) (bvnor #x2730ea11  bv_3)) (bvxor (bvadd bv_1 #x6e998b2e ) (bvsrem #xfbd92327  #xda1c8b9a ))))
(check-sat)
(exit)
